certificates/rado_a9_c2_N87.cnf
c Rad2 upper bound instance: x1 + 9*x2 - x3 = 2, interval [1,87]
p cnf 87 792
1 8 0
-1 -8 0
1 2 17 0
-1 -2 -17 0
1 3 26 0
-1 -3 -26 0
1 4 35 0
-1 -4 -35 0
1 5 44 0
-1 -5 -44 0
1 6 53 0
-1 -6 -53 0
1 7 62 0
-1 -7 -62 0
1 8 71 0
-1 -8 -71 0
1 9 80 0
-1 -9 -80 0
1 2 9 0
-1 -2 -9 0
2 18 0
-2 -18 0
2 3 27 0
-2 -3 -27 0
2 4 36 0
-2 -4 -36 0
2 5 45 0
-2 -5 -45 0
2 6 54 0
-2 -6 -54 0
2 7 63 0
-2 -7 -63 0
2 8 72 0
-2 -8 -72 0
2 9 81 0
-2 -9 -81 0
1 3 10 0
-1 -3 -10 0
2 3 19 0
-2 -3 -19 0
3 28 0
-3 -28 0
3 4 37 0
-3 -4 -37 0
3 5 46 0
-3 -5 -46 0
3 6 55 0
-3 -6 -55 0
3 7 64 0
-3 -7 -64 0
3 8 73 0
-3 -8 -73 0
3 9 82 0
-3 -9 -82 0
1 4 11 0
-1 -4 -11 0
2 4 20 0
-2 -4 -20 0
3 4 29 0
-3 -4 -29 0
4 38 0
-4 -38 0
4 5 47 0
-4 -5 -47 0
4 6 56 0
-4 -6 -56 0
4 7 65 0
-4 -7 -65 0
4 8 74 0
-4 -8 -74 0
4 9 83 0
-4 -9 -83 0
1 5 12 0
-1 -5 -12 0
2 5 21 0
-2 -5 -21 0
3 5 30 0
-3 -5 -30 0
4 5 39 0
-4 -5 -39 0
5 48 0
-5 -48 0
5 6 57 0
-5 -6 -57 0
5 7 66 0
-5 -7 -66 0
5 8 75 0
-5 -8 -75 0
5 9 84 0
-5 -9 -84 0
1 6 13 0
-1 -6 -13 0
2 6 22 0
-2 -6 -22 0
3 6 31 0
-3 -6 -31 0
4 6 40 0
-4 -6 -40 0
5 6 49 0
-5 -6 -49 0
6 58 0
-6 -58 0
6 7 67 0
-6 -7 -67 0
6 8 76 0
-6 -8 -76 0
6 9 85 0
-6 -9 -85 0
1 7 14 0
-1 -7 -14 0
2 7 23 0
-2 -7 -23 0
3 7 32 0
-3 -7 -32 0
4 7 41 0
-4 -7 -41 0
5 7 50 0
-5 -7 -50 0
6 7 59 0
-6 -7 -59 0
7 68 0
-7 -68 0
7 8 77 0
-7 -8 -77 0
7 9 86 0
-7 -9 -86 0
1 8 15 0
-1 -8 -15 0
2 8 24 0
-2 -8 -24 0
3 8 33 0
-3 -8 -33 0
4 8 42 0
-4 -8 -42 0
5 8 51 0
-5 -8 -51 0
6 8 60 0
-6 -8 -60 0
7 8 69 0
-7 -8 -69 0
8 78 0
-8 -78 0
8 9 87 0
-8 -9 -87 0
1 9 16 0
-1 -9 -16 0
2 9 25 0
-2 -9 -25 0
3 9 34 0
-3 -9 -34 0
4 9 43 0
-4 -9 -43 0
5 9 52 0
-5 -9 -52 0
6 9 61 0
-6 -9 -61 0
7 9 70 0
-7 -9 -70 0
8 9 79 0
-8 -9 -79 0
1 10 17 0
-1 -10 -17 0
2 10 26 0
-2 -10 -26 0
3 10 35 0
-3 -10 -35 0
4 10 44 0
-4 -10 -44 0
5 10 53 0
-5 -10 -53 0
6 10 62 0
-6 -10 -62 0
7 10 71 0
-7 -10 -71 0
8 10 80 0
-8 -10 -80 0
1 11 18 0
-1 -11 -18 0
2 11 27 0
-2 -11 -27 0
3 11 36 0
-3 -11 -36 0
4 11 45 0
-4 -11 -45 0
5 11 54 0
-5 -11 -54 0
6 11 63 0
-6 -11 -63 0
7 11 72 0
-7 -11 -72 0
8 11 81 0
-8 -11 -81 0
1 12 19 0
-1 -12 -19 0
2 12 28 0
-2 -12 -28 0
3 12 37 0
-3 -12 -37 0
4 12 46 0
-4 -12 -46 0
5 12 55 0
-5 -12 -55 0
6 12 64 0
-6 -12 -64 0
7 12 73 0
-7 -12 -73 0
8 12 82 0
-8 -12 -82 0
1 13 20 0
-1 -13 -20 0
2 13 29 0
-2 -13 -29 0
3 13 38 0
-3 -13 -38 0
4 13 47 0
-4 -13 -47 0
5 13 56 0
-5 -13 -56 0
6 13 65 0
-6 -13 -65 0
7 13 74 0
-7 -13 -74 0
8 13 83 0
-8 -13 -83 0
1 14 21 0
-1 -14 -21 0
2 14 30 0
-2 -14 -30 0
3 14 39 0
-3 -14 -39 0
4 14 48 0
-4 -14 -48 0
5 14 57 0
-5 -14 -57 0
6 14 66 0
-6 -14 -66 0
7 14 75 0
-7 -14 -75 0
8 14 84 0
-8 -14 -84 0
1 15 22 0
-1 -15 -22 0
2 15 31 0
-2 -15 -31 0
3 15 40 0
-3 -15 -40 0
4 15 49 0
-4 -15 -49 0
5 15 58 0
-5 -15 -58 0
6 15 67 0
-6 -15 -67 0
7 15 76 0
-7 -15 -76 0
8 15 85 0
-8 -15 -85 0
1 16 23 0
-1 -16 -23 0
2 16 32 0
-2 -16 -32 0
3 16 41 0
-3 -16 -41 0
4 16 50 0
-4 -16 -50 0
5 16 59 0
-5 -16 -59 0
6 16 68 0
-6 -16 -68 0
7 16 77 0
-7 -16 -77 0
8 16 86 0
-8 -16 -86 0
1 17 24 0
-1 -17 -24 0
2 17 33 0
-2 -17 -33 0
3 17 42 0
-3 -17 -42 0
4 17 51 0
-4 -17 -51 0
5 17 60 0
-5 -17 -60 0
6 17 69 0
-6 -17 -69 0
7 17 78 0
-7 -17 -78 0
8 17 87 0
-8 -17 -87 0
1 18 25 0
-1 -18 -25 0
2 18 34 0
-2 -18 -34 0
3 18 43 0
-3 -18 -43 0
4 18 52 0
-4 -18 -52 0
5 18 61 0
-5 -18 -61 0
6 18 70 0
-6 -18 -70 0
7 18 79 0
-7 -18 -79 0
1 19 26 0
-1 -19 -26 0
2 19 35 0
-2 -19 -35 0
3 19 44 0
-3 -19 -44 0
4 19 53 0
-4 -19 -53 0
5 19 62 0
-5 -19 -62 0
6 19 71 0
-6 -19 -71 0
7 19 80 0
-7 -19 -80 0
1 20 27 0
-1 -20 -27 0
2 20 36 0
-2 -20 -36 0
3 20 45 0
-3 -20 -45 0
4 20 54 0
-4 -20 -54 0
5 20 63 0
-5 -20 -63 0
6 20 72 0
-6 -20 -72 0
7 20 81 0
-7 -20 -81 0
1 21 28 0
-1 -21 -28 0
2 21 37 0
-2 -21 -37 0
3 21 46 0
-3 -21 -46 0
4 21 55 0
-4 -21 -55 0
5 21 64 0
-5 -21 -64 0
6 21 73 0
-6 -21 -73 0
7 21 82 0
-7 -21 -82 0
1 22 29 0
-1 -22 -29 0
2 22 38 0
-2 -22 -38 0
3 22 47 0
-3 -22 -47 0
4 22 56 0
-4 -22 -56 0
5 22 65 0
-5 -22 -65 0
6 22 74 0
-6 -22 -74 0
7 22 83 0
-7 -22 -83 0
1 23 30 0
-1 -23 -30 0
2 23 39 0
-2 -23 -39 0
3 23 48 0
-3 -23 -48 0
4 23 57 0
-4 -23 -57 0
5 23 66 0
-5 -23 -66 0
6 23 75 0
-6 -23 -75 0
7 23 84 0
-7 -23 -84 0
1 24 31 0
-1 -24 -31 0
2 24 40 0
-2 -24 -40 0
3 24 49 0
-3 -24 -49 0
4 24 58 0
-4 -24 -58 0
5 24 67 0
-5 -24 -67 0
6 24 76 0
-6 -24 -76 0
7 24 85 0
-7 -24 -85 0
1 25 32 0
-1 -25 -32 0
2 25 41 0
-2 -25 -41 0
3 25 50 0
-3 -25 -50 0
4 25 59 0
-4 -25 -59 0
5 25 68 0
-5 -25 -68 0
6 25 77 0
-6 -25 -77 0
7 25 86 0
-7 -25 -86 0
1 26 33 0
-1 -26 -33 0
2 26 42 0
-2 -26 -42 0
3 26 51 0
-3 -26 -51 0
4 26 60 0
-4 -26 -60 0
5 26 69 0
-5 -26 -69 0
6 26 78 0
-6 -26 -78 0
7 26 87 0
-7 -26 -87 0
1 27 34 0
-1 -27 -34 0
2 27 43 0
-2 -27 -43 0
3 27 52 0
-3 -27 -52 0
4 27 61 0
-4 -27 -61 0
5 27 70 0
-5 -27 -70 0
6 27 79 0
-6 -27 -79 0
1 28 35 0
-1 -28 -35 0
2 28 44 0
-2 -28 -44 0
3 28 53 0
-3 -28 -53 0
4 28 62 0
-4 -28 -62 0
5 28 71 0
-5 -28 -71 0
6 28 80 0
-6 -28 -80 0
1 29 36 0
-1 -29 -36 0
2 29 45 0
-2 -29 -45 0
3 29 54 0
-3 -29 -54 0
4 29 63 0
-4 -29 -63 0
5 29 72 0
-5 -29 -72 0
6 29 81 0
-6 -29 -81 0
1 30 37 0
-1 -30 -37 0
2 30 46 0
-2 -30 -46 0
3 30 55 0
-3 -30 -55 0
4 30 64 0
-4 -30 -64 0
5 30 73 0
-5 -30 -73 0
6 30 82 0
-6 -30 -82 0
1 31 38 0
-1 -31 -38 0
2 31 47 0
-2 -31 -47 0
3 31 56 0
-3 -31 -56 0
4 31 65 0
-4 -31 -65 0
5 31 74 0
-5 -31 -74 0
6 31 83 0
-6 -31 -83 0
1 32 39 0
-1 -32 -39 0
2 32 48 0
-2 -32 -48 0
3 32 57 0
-3 -32 -57 0
4 32 66 0
-4 -32 -66 0
5 32 75 0
-5 -32 -75 0
6 32 84 0
-6 -32 -84 0
1 33 40 0
-1 -33 -40 0
2 33 49 0
-2 -33 -49 0
3 33 58 0
-3 -33 -58 0
4 33 67 0
-4 -33 -67 0
5 33 76 0
-5 -33 -76 0
6 33 85 0
-6 -33 -85 0
1 34 41 0
-1 -34 -41 0
2 34 50 0
-2 -34 -50 0
3 34 59 0
-3 -34 -59 0
4 34 68 0
-4 -34 -68 0
5 34 77 0
-5 -34 -77 0
6 34 86 0
-6 -34 -86 0
1 35 42 0
-1 -35 -42 0
2 35 51 0
-2 -35 -51 0
3 35 60 0
-3 -35 -60 0
4 35 69 0
-4 -35 -69 0
5 35 78 0
-5 -35 -78 0
6 35 87 0
-6 -35 -87 0
1 36 43 0
-1 -36 -43 0
2 36 52 0
-2 -36 -52 0
3 36 61 0
-3 -36 -61 0
4 36 70 0
-4 -36 -70 0
5 36 79 0
-5 -36 -79 0
1 37 44 0
-1 -37 -44 0
2 37 53 0
-2 -37 -53 0
3 37 62 0
-3 -37 -62 0
4 37 71 0
-4 -37 -71 0
5 37 80 0
-5 -37 -80 0
1 38 45 0
-1 -38 -45 0
2 38 54 0
-2 -38 -54 0
3 38 63 0
-3 -38 -63 0
4 38 72 0
-4 -38 -72 0
5 38 81 0
-5 -38 -81 0
1 39 46 0
-1 -39 -46 0
2 39 55 0
-2 -39 -55 0
3 39 64 0
-3 -39 -64 0
4 39 73 0
-4 -39 -73 0
5 39 82 0
-5 -39 -82 0
1 40 47 0
-1 -40 -47 0
2 40 56 0
-2 -40 -56 0
3 40 65 0
-3 -40 -65 0
4 40 74 0
-4 -40 -74 0
5 40 83 0
-5 -40 -83 0
1 41 48 0
-1 -41 -48 0
2 41 57 0
-2 -41 -57 0
3 41 66 0
-3 -41 -66 0
4 41 75 0
-4 -41 -75 0
5 41 84 0
-5 -41 -84 0
1 42 49 0
-1 -42 -49 0
2 42 58 0
-2 -42 -58 0
3 42 67 0
-3 -42 -67 0
4 42 76 0
-4 -42 -76 0
5 42 85 0
-5 -42 -85 0
1 43 50 0
-1 -43 -50 0
2 43 59 0
-2 -43 -59 0
3 43 68 0
-3 -43 -68 0
4 43 77 0
-4 -43 -77 0
5 43 86 0
-5 -43 -86 0
1 44 51 0
-1 -44 -51 0
2 44 60 0
-2 -44 -60 0
3 44 69 0
-3 -44 -69 0
4 44 78 0
-4 -44 -78 0
5 44 87 0
-5 -44 -87 0
1 45 52 0
-1 -45 -52 0
2 45 61 0
-2 -45 -61 0
3 45 70 0
-3 -45 -70 0
4 45 79 0
-4 -45 -79 0
1 46 53 0
-1 -46 -53 0
2 46 62 0
-2 -46 -62 0
3 46 71 0
-3 -46 -71 0
4 46 80 0
-4 -46 -80 0
1 47 54 0
-1 -47 -54 0
2 47 63 0
-2 -47 -63 0
3 47 72 0
-3 -47 -72 0
4 47 81 0
-4 -47 -81 0
1 48 55 0
-1 -48 -55 0
2 48 64 0
-2 -48 -64 0
3 48 73 0
-3 -48 -73 0
4 48 82 0
-4 -48 -82 0
1 49 56 0
-1 -49 -56 0
2 49 65 0
-2 -49 -65 0
3 49 74 0
-3 -49 -74 0
4 49 83 0
-4 -49 -83 0
1 50 57 0
-1 -50 -57 0
2 50 66 0
-2 -50 -66 0
3 50 75 0
-3 -50 -75 0
4 50 84 0
-4 -50 -84 0
1 51 58 0
-1 -51 -58 0
2 51 67 0
-2 -51 -67 0
3 51 76 0
-3 -51 -76 0
4 51 85 0
-4 -51 -85 0
1 52 59 0
-1 -52 -59 0
2 52 68 0
-2 -52 -68 0
3 52 77 0
-3 -52 -77 0
4 52 86 0
-4 -52 -86 0
1 53 60 0
-1 -53 -60 0
2 53 69 0
-2 -53 -69 0
3 53 78 0
-3 -53 -78 0
4 53 87 0
-4 -53 -87 0
1 54 61 0
-1 -54 -61 0
2 54 70 0
-2 -54 -70 0
3 54 79 0
-3 -54 -79 0
1 55 62 0
-1 -55 -62 0
2 55 71 0
-2 -55 -71 0
3 55 80 0
-3 -55 -80 0
1 56 63 0
-1 -56 -63 0
2 56 72 0
-2 -56 -72 0
3 56 81 0
-3 -56 -81 0
1 57 64 0
-1 -57 -64 0
2 57 73 0
-2 -57 -73 0
3 57 82 0
-3 -57 -82 0
1 58 65 0
-1 -58 -65 0
2 58 74 0
-2 -58 -74 0
3 58 83 0
-3 -58 -83 0
1 59 66 0
-1 -59 -66 0
2 59 75 0
-2 -59 -75 0
3 59 84 0
-3 -59 -84 0
1 60 67 0
-1 -60 -67 0
2 60 76 0
-2 -60 -76 0
3 60 85 0
-3 -60 -85 0
1 61 68 0
-1 -61 -68 0
2 61 77 0
-2 -61 -77 0
3 61 86 0
-3 -61 -86 0
1 62 69 0
-1 -62 -69 0
2 62 78 0
-2 -62 -78 0
3 62 87 0
-3 -62 -87 0
1 63 70 0
-1 -63 -70 0
2 63 79 0
-2 -63 -79 0
1 64 71 0
-1 -64 -71 0
2 64 80 0
-2 -64 -80 0
1 65 72 0
-1 -65 -72 0
2 65 81 0
-2 -65 -81 0
1 66 73 0
-1 -66 -73 0
2 66 82 0
-2 -66 -82 0
1 67 74 0
-1 -67 -74 0
2 67 83 0
-2 -67 -83 0
1 68 75 0
-1 -68 -75 0
2 68 84 0
-2 -68 -84 0
1 69 76 0
-1 -69 -76 0
2 69 85 0
-2 -69 -85 0
1 70 77 0
-1 -70 -77 0
2 70 86 0
-2 -70 -86 0
1 71 78 0
-1 -71 -78 0
2 71 87 0
-2 -71 -87 0
1 72 79 0
-1 -72 -79 0
1 73 80 0
-1 -73 -80 0
1 74 81 0
-1 -74 -81 0
1 75 82 0
-1 -75 -82 0
1 76 83 0
-1 -76 -83 0
1 77 84 0
-1 -77 -84 0
1 78 85 0
-1 -78 -85 0
1 79 86 0
-1 -79 -86 0
1 80 87 0
-1 -80 -87 0
