certificates/rado_a9_c2_N87.drat
1 -86 -87 0
-86 -87 0
d 1 -86 -87 0
8 80 86 0
80 -87 0
-80 -87 0
d -80 -1 -87 0
-87 0
-8 -80 0
-80 0
1 0
-8 0
78 0
10 0
86 0
9 0
17 0
-85 0
-71 0
0
